NAME: Random_90_5
ELLAPSED_TIME_(ms): 1
TOUR_SIZE: 2754.4133
TOUR_SECTION
0
68
47
23
5
7
2
16
29
51
33
74
44
4
21
80
75
60
70
14
41
12
40
37
6
69
50
79
85
19
18
3
24
78
10
36
15
64
88
38
9
22
76
20
72
46
48
67
84
11
54
63
82
31
34
17
43
13
62
59
27
86
53
32
25
42
49
81
58
1
26
39
52
35
28
57
83
77
71
30
89
45
61
73
8
56
55
66
87
65
0
EOF
